\ This file has been generated by DOcplex
\ ENCODING=ISO-8859-1
\Problem name: random_problem.lp

Minimize
 obj: - 4 x0 - 7 x1 + 3 x2 + 3 x4 + 5 x5 - 9 x6 - 6 x7 + 8 x8 + x9 - 5 x10
      + 8 x11 + [ 8 x0*x1 - 10 x0*x4 + 2 x0*x8 + 10 x0*x9 + 16 x0*x10 + 20 x1*x2
      + 8 x1*x7 + 16 x1*x10 - 16 x1*x11 - 14 x2*x3 - 14 x2*x6 - 4 x2*x8
      - 14 x2*x11 - 12 x3*x5 + 14 x3*x8 - 20 x3*x10 + 20 x3*x11 - 4 x4*x5
      + 20 x4*x6 + 18 x4*x8 - 10 x4*x11 + 6 x5*x6 - 20 x5*x7 + 20 x5*x9
      - 10 x6*x7 - 16 x6*x10 + 18 x7*x8 - 18 x7*x11 - 16 x9*x10 ]/2
Subject To
 c0: 2 x0 + x1 + 2 x5 + x8 - 2 x10 = 0
 c1: - 2 x0 - x2 - 2 x3 + 2 x8 + 2 x11 = -2

Bounds
 0 <= x0 <= 1
 0 <= x1 <= 1
 0 <= x2 <= 1
 0 <= x3 <= 1
 0 <= x4 <= 1
 0 <= x5 <= 1
 0 <= x6 <= 1
 0 <= x7 <= 1
 0 <= x8 <= 1
 0 <= x9 <= 1
 0 <= x10 <= 1
 0 <= x11 <= 1

Binaries
 x0 x1 x2 x3 x4 x5 x6 x7 x8 x9 x10 x11
End
